array [1..11] of int: X_INTRODUCED_34_ = [1,-1,-1,-1,-1,-1,-1,-1,-1,-1,-1];
array [1..4] of int: X_INTRODUCED_39_ = [1,1,-1,-1];
array [1..3] of int: X_INTRODUCED_49_ = [1,-1,-1];
array [1..3] of int: X_INTRODUCED_53_ = [1,1,-1];
var 75..114: X_INTRODUCED_0_:: is_defined_var;
var 89..114: X_INTRODUCED_1_:: is_defined_var;
var 96..114: X_INTRODUCED_2_:: is_defined_var;
var 89..114: X_INTRODUCED_4_:: is_defined_var;
var 111..114: X_INTRODUCED_5_:: is_defined_var;
var 3..114: X_INTRODUCED_6_:: is_defined_var;
var 56..114: X_INTRODUCED_7_:: is_defined_var;
var 78..114: X_INTRODUCED_9_:: is_defined_var;
var 109..114: X_INTRODUCED_10_:: is_defined_var;
var 13..114: X_INTRODUCED_11_:: is_defined_var;
var 0..114: X_INTRODUCED_12_;
var 0..114: X_INTRODUCED_13_;
var 0..114: X_INTRODUCED_14_;
var 0..114: X_INTRODUCED_15_;
var 0..114: X_INTRODUCED_16_;
var 0..114: X_INTRODUCED_17_;
var 0..114: X_INTRODUCED_18_;
var 0..114: X_INTRODUCED_19_;
var 0..114: X_INTRODUCED_20_;
var 0..114: X_INTRODUCED_21_;
var 0..114: X_INTRODUCED_22_;
var 0..114: X_INTRODUCED_23_;
var 947..1368: objective:: output_var:: is_defined_var;
array [1..12] of var int: w:: output_array([0..11]) = [X_INTRODUCED_0_,X_INTRODUCED_1_,X_INTRODUCED_2_,114,X_INTRODUCED_4_,X_INTRODUCED_5_,X_INTRODUCED_6_,X_INTRODUCED_7_,114,X_INTRODUCED_9_,X_INTRODUCED_10_,X_INTRODUCED_11_];
array [1..12] of var int: f:: output_array([0..11]) = [X_INTRODUCED_12_,X_INTRODUCED_13_,X_INTRODUCED_14_,X_INTRODUCED_15_,X_INTRODUCED_16_,X_INTRODUCED_17_,X_INTRODUCED_18_,X_INTRODUCED_19_,X_INTRODUCED_20_,X_INTRODUCED_21_,X_INTRODUCED_22_,X_INTRODUCED_23_];
array [1..12] of var int: X_INTRODUCED_26_ ::var_is_introduced  = [X_INTRODUCED_12_,X_INTRODUCED_13_,X_INTRODUCED_14_,X_INTRODUCED_15_,X_INTRODUCED_16_,X_INTRODUCED_17_,X_INTRODUCED_18_,X_INTRODUCED_19_,X_INTRODUCED_20_,X_INTRODUCED_21_,X_INTRODUCED_22_,X_INTRODUCED_23_];
array [1..11] of var int: X_INTRODUCED_33_ ::var_is_introduced  = [objective,X_INTRODUCED_0_,X_INTRODUCED_1_,X_INTRODUCED_2_,X_INTRODUCED_4_,X_INTRODUCED_5_,X_INTRODUCED_6_,X_INTRODUCED_7_,X_INTRODUCED_9_,X_INTRODUCED_10_,X_INTRODUCED_11_];
array [1..12] of var int: X_INTRODUCED_87_ ::var_is_introduced  = [X_INTRODUCED_0_,X_INTRODUCED_1_,X_INTRODUCED_2_,114,X_INTRODUCED_4_,X_INTRODUCED_5_,X_INTRODUCED_6_,X_INTRODUCED_7_,114,X_INTRODUCED_9_,X_INTRODUCED_10_,X_INTRODUCED_11_];
constraint int_lin_eq(X_INTRODUCED_34_,X_INTRODUCED_33_,228):: defines_var(objective);
constraint int_lin_eq(X_INTRODUCED_39_,[X_INTRODUCED_0_,X_INTRODUCED_12_,X_INTRODUCED_11_,X_INTRODUCED_14_],0);
constraint int_lin_eq(X_INTRODUCED_39_,[X_INTRODUCED_1_,X_INTRODUCED_13_,X_INTRODUCED_0_,X_INTRODUCED_15_],0);
constraint int_lin_eq(X_INTRODUCED_39_,[X_INTRODUCED_2_,X_INTRODUCED_14_,X_INTRODUCED_1_,X_INTRODUCED_16_],0);
constraint int_lin_eq(X_INTRODUCED_49_,[X_INTRODUCED_15_,X_INTRODUCED_2_,X_INTRODUCED_17_],-114);
constraint int_lin_eq(X_INTRODUCED_53_,[X_INTRODUCED_4_,X_INTRODUCED_16_,X_INTRODUCED_18_],114);
constraint int_lin_eq(X_INTRODUCED_39_,[X_INTRODUCED_5_,X_INTRODUCED_17_,X_INTRODUCED_4_,X_INTRODUCED_19_],0);
constraint int_lin_eq(X_INTRODUCED_39_,[X_INTRODUCED_6_,X_INTRODUCED_18_,X_INTRODUCED_5_,X_INTRODUCED_20_],0);
constraint int_lin_eq(X_INTRODUCED_39_,[X_INTRODUCED_7_,X_INTRODUCED_19_,X_INTRODUCED_6_,X_INTRODUCED_21_],0);
constraint int_lin_eq(X_INTRODUCED_49_,[X_INTRODUCED_20_,X_INTRODUCED_7_,X_INTRODUCED_22_],-114);
constraint int_lin_eq(X_INTRODUCED_53_,[X_INTRODUCED_9_,X_INTRODUCED_21_,X_INTRODUCED_23_],114);
constraint int_lin_eq(X_INTRODUCED_39_,[X_INTRODUCED_10_,X_INTRODUCED_22_,X_INTRODUCED_9_,X_INTRODUCED_12_],0);
constraint int_lin_eq(X_INTRODUCED_39_,[X_INTRODUCED_11_,X_INTRODUCED_23_,X_INTRODUCED_10_,X_INTRODUCED_13_],0);
constraint int_lin_eq(X_INTRODUCED_49_,[X_INTRODUCED_0_,X_INTRODUCED_13_,X_INTRODUCED_14_],0):: defines_var(X_INTRODUCED_0_);
constraint int_lin_eq(X_INTRODUCED_49_,[X_INTRODUCED_1_,X_INTRODUCED_14_,X_INTRODUCED_15_],0):: defines_var(X_INTRODUCED_1_);
constraint int_lin_eq(X_INTRODUCED_49_,[X_INTRODUCED_2_,X_INTRODUCED_15_,X_INTRODUCED_16_],0):: defines_var(X_INTRODUCED_2_);
constraint int_lin_eq(X_INTRODUCED_49_,[114,X_INTRODUCED_16_,X_INTRODUCED_17_],0);
constraint int_lin_eq(X_INTRODUCED_49_,[X_INTRODUCED_4_,X_INTRODUCED_17_,X_INTRODUCED_18_],0):: defines_var(X_INTRODUCED_4_);
constraint int_lin_eq(X_INTRODUCED_49_,[X_INTRODUCED_5_,X_INTRODUCED_18_,X_INTRODUCED_19_],0):: defines_var(X_INTRODUCED_5_);
constraint int_lin_eq(X_INTRODUCED_49_,[X_INTRODUCED_6_,X_INTRODUCED_19_,X_INTRODUCED_20_],0):: defines_var(X_INTRODUCED_6_);
constraint int_lin_eq(X_INTRODUCED_49_,[X_INTRODUCED_7_,X_INTRODUCED_20_,X_INTRODUCED_21_],0):: defines_var(X_INTRODUCED_7_);
constraint int_lin_eq(X_INTRODUCED_49_,[114,X_INTRODUCED_21_,X_INTRODUCED_22_],0);
constraint int_lin_eq(X_INTRODUCED_49_,[X_INTRODUCED_9_,X_INTRODUCED_22_,X_INTRODUCED_23_],0):: defines_var(X_INTRODUCED_9_);
constraint int_lin_eq(X_INTRODUCED_49_,[X_INTRODUCED_10_,X_INTRODUCED_23_,X_INTRODUCED_12_],0):: defines_var(X_INTRODUCED_10_);
constraint int_lin_eq(X_INTRODUCED_49_,[X_INTRODUCED_11_,X_INTRODUCED_12_,X_INTRODUCED_13_],0):: defines_var(X_INTRODUCED_11_);
solve :: seq_search([int_search(X_INTRODUCED_87_,first_fail,indomain_split,complete),int_search(X_INTRODUCED_26_,first_fail,indomain_split,complete),int_search([objective],input_order,indomain_min,complete)]) minimize objective;
